presolving:
(round 1, fast)       25257 del vars, 80662 del conss, 0 add conss, 15262 chg bounds, 148 chg sides, 0 chg coeffs, 0 upgd conss, 0 impls, 1879 clqs
(round 2, fast)       25257 del vars, 80662 del conss, 0 add conss, 18440 chg bounds, 148 chg sides, 0 chg coeffs, 0 upgd conss, 0 impls, 1879 clqs
(round 3, fast)       28253 del vars, 82251 del conss, 0 add conss, 18440 chg bounds, 148 chg sides, 0 chg coeffs, 0 upgd conss, 0 impls, 1879 clqs
(round 4, fast)       28434 del vars, 82251 del conss, 0 add conss, 18440 chg bounds, 148 chg sides, 0 chg coeffs, 0 upgd conss, 0 impls, 1879 clqs
   (0.9s) running MILP presolver
   (1.0s) MILP presolver (2 rounds): 0 aggregations, 1 fixings, 0 bound changes
(round 5, medium)     28435 del vars, 85342 del conss, 1879 add conss, 18441 chg bounds, 148 chg sides, 0 chg coeffs, 0 upgd conss, 0 impls, 1879 clqs
(round 6, exhaustive) 28435 del vars, 85941 del conss, 1879 add conss, 18441 chg bounds, 747 chg sides, 0 chg coeffs, 0 upgd conss, 0 impls, 1879 clqs
   (1.0s) running MILP presolver
   (1.1s) MILP presolver found nothing
(round 7, exhaustive) 28435 del vars, 85941 del conss, 1879 add conss, 18441 chg bounds, 747 chg sides, 0 chg coeffs, 1280 upgd conss, 0 impls, 1879 clqs
   (1.1s) probing: 51/148 (34.5%) - 0 fixings, 0 aggregations, 0 implications, 0 bound changes
   (1.1s) probing aborted: 50/50 successive totally useless probings
   (1.1s) symmetry computation started: requiring (bin +, int -, cont +), (fixed: bin -, int +, cont -)
   (1.1s) no symmetry present
presolving (8 rounds: 8 fast, 4 medium, 3 exhaustive):
 28435 deleted vars, 85941 deleted constraints, 1879 added constraints, 18441 tightened bounds, 0 added holes, 747 changed sides, 0 changed coefficients
 0 implications, 1879 cliques
presolved problem has 148 variables (148 bin, 0 int, 0 impl, 0 cont) and 1280 constraints
   1280 constraints of type <setppc>
Presolving Time: 0.80

 time | node  | left  |LP iter|LP it/n|mem/heur|mdpt |vars |cons |rows |cuts |sepa|confs|strbr|  dualbound   | primalbound  |  gap   | compl. 
t 1.1s|     1 |     0 |     0 |     - | trivial|   0 | 148 |1280 |   0 |   0 |  0 |   0 |   0 | 1.877221e+06 | 1.869102e+06 |   0.43%| unknown
p 1.1s|     1 |     0 |     0 |     - |  clique|   0 | 148 |1280 |1280 |   0 |  0 |   0 |   0 | 1.877221e+06 | 1.870480e+06 |   0.36%| unknown
  1.1s|     1 |     0 |   667 |     - |   166M |   0 | 148 |1280 |1280 |   0 |  0 |   0 |   0 | 1.871493e+06 | 1.870480e+06 |   0.05%| unknown
  1.2s|     1 |     0 |   772 |     - |   166M |   0 | 148 |1280 |1281 |   1 |  1 |   0 |   0 | 1.871485e+06 | 1.870480e+06 |   0.05%| unknown
  1.3s|     1 |     0 |   907 |     - |   168M |   0 | 148 |1280 |1282 |   2 |  2 |   0 |   0 | 1.871479e+06 | 1.870480e+06 |   0.05%| unknown
  1.4s|     1 |     0 |   983 |     - |   170M |   0 | 148 |1280 |1283 |   3 |  3 |   0 |   0 | 1.871478e+06 | 1.870480e+06 |   0.05%| unknown
  1.5s|     1 |     0 |  1096 |     - |   171M |   0 | 148 |1280 |1285 |   5 |  4 |   0 |   0 | 1.871474e+06 | 1.870480e+06 |   0.05%| unknown
  1.5s|     1 |     0 |  1219 |     - |   172M |   0 | 148 |1280 |1286 |   6 |  5 |   0 |   0 | 1.871471e+06 | 1.870480e+06 |   0.05%| unknown
  1.6s|     1 |     0 |  1389 |     - |   174M |   0 | 148 |1280 |1287 |   7 |  6 |   0 |   0 | 1.871467e+06 | 1.870480e+06 |   0.05%| unknown
  1.7s|     1 |     0 |  1455 |     - |   174M |   0 | 148 |1280 |1288 |   8 |  7 |   0 |   0 | 1.871466e+06 | 1.870480e+06 |   0.05%| unknown
  1.7s|     1 |     0 |  1592 |     - |   175M |   0 | 148 |1280 |1289 |   9 |  8 |   0 |   0 | 1.871466e+06 | 1.870480e+06 |   0.05%| unknown
  1.8s|     1 |     0 |  1679 |     - |   177M |   0 | 148 |1280 |1290 |  10 |  9 |   0 |   0 | 1.871465e+06 | 1.870480e+06 |   0.05%| unknown
  1.9s|     1 |     0 |  1827 |     - |   179M |   0 | 148 |1280 |1292 |  12 | 10 |   0 |   0 | 1.871464e+06 | 1.870480e+06 |   0.05%| unknown
  1.9s|     1 |     0 |  1877 |     - |   179M |   0 | 148 |1280 |1294 |  14 | 11 |   0 |   0 | 1.871463e+06 | 1.870480e+06 |   0.05%| unknown
  1.9s|     1 |     0 |  2024 |     - |   179M |   0 | 148 |1280 |1296 |  16 | 12 |   0 |   0 | 1.871462e+06 | 1.870480e+06 |   0.05%| unknown
 time | node  | left  |LP iter|LP it/n|mem/heur|mdpt |vars |cons |rows |cuts |sepa|confs|strbr|  dualbound   | primalbound  |  gap   | compl. 
  2.0s|     1 |     0 |  2140 |     - |   179M |   0 | 148 |1280 |1298 |  18 | 13 |   0 |   0 | 1.871459e+06 | 1.870480e+06 |   0.05%| unknown
  2.0s|     1 |     0 |  2173 |     - |   179M |   0 | 148 |1280 |1299 |  19 | 14 |   0 |   0 | 1.871458e+06 | 1.870480e+06 |   0.05%| unknown
  2.0s|     1 |     0 |  2259 |     - |   179M |   0 | 148 |1280 |1304 |  24 | 15 |   0 |   0 | 1.871457e+06 | 1.870480e+06 |   0.05%| unknown
  2.0s|     1 |     0 |  2272 |     - |   179M |   0 | 148 |1280 |1305 |  25 | 16 |   0 |   0 | 1.871457e+06 | 1.870480e+06 |   0.05%| unknown
d 2.2s|     1 |     0 |  3268 |     - |farkasdi|   0 | 148 |1280 |1305 |   0 | 18 |   0 |   0 | 1.871457e+06 | 1.870640e+06 |   0.04%| unknown
  2.2s|     1 |     0 |  3268 |     - |   180M |   0 | 148 |1280 |1305 |  25 | 18 |   0 |   0 | 1.871457e+06 | 1.870640e+06 |   0.04%| unknown
  2.3s|     1 |     0 |  3339 |     - |   180M |   0 | 148 |1280 |1307 |  27 | 19 |   0 |   0 | 1.871455e+06 | 1.870640e+06 |   0.04%| unknown
  4.9s|     1 |     2 |  3339 |     - |   180M |   0 | 148 |1280 |1307 |  27 | 20 |   0 |  38 | 1.871419e+06 | 1.870640e+06 |   0.04%| unknown
* 6.5s|     4 |     3 |  4091 | 583.3 |strongbr|   3 | 148 |1280 |1295 |  27 |  1 |   0 | 112 | 1.871419e+06 | 1.870798e+06 |   0.03%| unknown
* 6.7s|     4 |     3 |  4255 | 638.0 |strongbr|   3 | 148 |1280 |1295 |  27 |  4 |   0 | 136 | 1.871419e+06 | 1.870810e+06 |   0.03%| unknown
* 7.2s|     5 |     2 |  4618 | 569.2 |strongbr|   3 | 148 |1282 |1295 |  27 |  6 |   2 | 187 | 1.871419e+06 | 1.870825e+06 |   0.03%|   6.41%
*11.0s|    20 |     5 |  6705 | 229.7 |strongbr|   8 | 148 |1282 |1295 |  27 |  1 |   2 | 395 | 1.871398e+06 | 1.870850e+06 |   0.03%|  17.37%
*11.1s|    28 |     5 |  7093 | 176.0 |    LP  |   8 | 148 |1282 |1295 |  27 |  1 |   2 | 416 | 1.871398e+06 | 1.870856e+06 |   0.03%|  25.54%
*11.6s|    38 |     7 |  7732 | 145.7 |strongbr|   9 | 148 |1282 |1295 |  27 |  1 |   2 | 443 | 1.871398e+06 | 1.870881e+06 |   0.03%|  28.10%
*12.6s|    60 |    11 |  9763 | 125.8 |    LP  |   9 | 148 |1284 |1295 |  27 |  1 |   4 | 478 | 1.871382e+06 | 1.870887e+06 |   0.03%|  31.80%
 time | node  | left  |LP iter|LP it/n|mem/heur|mdpt |vars |cons |rows |cuts |sepa|confs|strbr|  dualbound   | primalbound  |  gap   | compl. 
*12.6s|    66 |    13 | 10528 | 126.0 |    LP  |   9 | 148 |1282 |1295 |  27 |  1 |   4 | 479 | 1.871357e+06 | 1.870948e+06 |   0.02%|  32.84%
 13.5s|   100 |    11 | 12873 | 106.4 |   182M |  12 | 148 |1283 |1305 |  53 |  7 |   5 | 480 | 1.871343e+06 | 1.870948e+06 |   0.02%|  39.47%
 18.0s|   200 |    11 | 24091 | 109.3 |   190M |  14 | 148 |1307 |1295 | 146 |  0 |  29 | 538 | 1.871305e+06 | 1.870948e+06 |   0.02%|  53.88%
 20.2s|   300 |    11 | 32229 | 100.0 |   191M |  18 | 148 |1321 |1306 | 193 |  0 |  43 | 569 | 1.871293e+06 | 1.870948e+06 |   0.02%|  57.75%
*21.7s|   373 |    12 | 39423 |  99.7 |strongbr|  18 | 148 |1331 |1295 | 228 |  1 |  53 | 590 | 1.871228e+06 | 1.870962e+06 |   0.01%|  74.70%
 22.2s|   400 |     9 | 41664 |  98.6 |   191M |  18 | 148 |1336 |1295 | 240 |  0 |  58 | 609 | 1.871222e+06 | 1.870962e+06 |   0.01%|  80.70%
 23.5s|   500 |     9 | 48983 |  93.5 |   191M |  19 | 148 |1353 |1297 | 259 |  1 |  75 | 645 | 1.871212e+06 | 1.870962e+06 |   0.01%|  87.70%
 25.1s|   600 |     5 | 57157 |  91.5 |   191M |  19 | 148 |1361 |1305 | 287 |  0 |  83 | 667 | 1.871116e+06 | 1.870962e+06 |   0.01%|  95.12%

SCIP Status        : problem is solved [optimal solution found]
Solving Time (sec) : 25.48
Solving Nodes      : 649
Primal Bound       : +1.87096222486679e+06 (345 solutions)
Dual Bound         : +1.87096222486679e+06
Gap                : 0.00 %
Solve Status: optimal
Solve Time: 25.53 seconds
